Minimize
 obj: 0 X_0_1
Subject To
 out_0:
  + 1 X_0_1 + 1 X_0_2 + 1 X_0_3 + 1 X_0_4 + 1 X_0_5 + 1 X_0_6 + 1 X_0_7 + 1 X_0_8
  + 1 X_0_9
  = 1
 in_0:
  + 1 X_1_0 + 1 X_2_0 + 1 X_3_0 + 1 X_4_0 + 1 X_5_0 + 1 X_6_0 + 1 X_7_0 + 1 X_8_0
  + 1 X_9_0
  = 1
 out_1:
  + 1 X_1_0 + 1 X_1_2 + 1 X_1_3 + 1 X_1_4 + 1 X_1_5 + 1 X_1_6 + 1 X_1_7 + 1 X_1_8
  + 1 X_1_9
  = 1
 in_1:
  + 1 X_0_1 + 1 X_2_1 + 1 X_3_1 + 1 X_4_1 + 1 X_5_1 + 1 X_6_1 + 1 X_7_1 + 1 X_8_1
  + 1 X_9_1
  = 1
 out_2:
  + 1 X_2_0 + 1 X_2_1 + 1 X_2_3 + 1 X_2_4 + 1 X_2_5 + 1 X_2_6 + 1 X_2_7 + 1 X_2_8
  + 1 X_2_9
  = 1
 in_2:
  + 1 X_0_2 + 1 X_1_2 + 1 X_3_2 + 1 X_4_2 + 1 X_5_2 + 1 X_6_2 + 1 X_7_2 + 1 X_8_2
  + 1 X_9_2
  = 1
 out_3:
  + 1 X_3_0 + 1 X_3_1 + 1 X_3_2 + 1 X_3_4 + 1 X_3_5 + 1 X_3_6 + 1 X_3_7 + 1 X_3_8
  + 1 X_3_9
  = 1
 in_3:
  + 1 X_0_3 + 1 X_1_3 + 1 X_2_3 + 1 X_4_3 + 1 X_5_3 + 1 X_6_3 + 1 X_7_3 + 1 X_8_3
  + 1 X_9_3
  = 1
 out_4:
  + 1 X_4_0 + 1 X_4_1 + 1 X_4_2 + 1 X_4_3 + 1 X_4_5 + 1 X_4_6 + 1 X_4_7 + 1 X_4_8
  + 1 X_4_9
  = 1
 in_4:
  + 1 X_0_4 + 1 X_1_4 + 1 X_2_4 + 1 X_3_4 + 1 X_5_4 + 1 X_6_4 + 1 X_7_4 + 1 X_8_4
  + 1 X_9_4
  = 1
 out_5:
  + 1 X_5_0 + 1 X_5_1 + 1 X_5_2 + 1 X_5_3 + 1 X_5_4 + 1 X_5_6 + 1 X_5_7 + 1 X_5_8
  + 1 X_5_9
  = 1
 in_5:
  + 1 X_0_5 + 1 X_1_5 + 1 X_2_5 + 1 X_3_5 + 1 X_4_5 + 1 X_6_5 + 1 X_7_5 + 1 X_8_5
  + 1 X_9_5
  = 1
 out_6:
  + 1 X_6_0 + 1 X_6_1 + 1 X_6_2 + 1 X_6_3 + 1 X_6_4 + 1 X_6_5 + 1 X_6_7 + 1 X_6_8
  + 1 X_6_9
  = 1
 in_6:
  + 1 X_0_6 + 1 X_1_6 + 1 X_2_6 + 1 X_3_6 + 1 X_4_6 + 1 X_5_6 + 1 X_7_6 + 1 X_8_6
  + 1 X_9_6
  = 1
 out_7:
  + 1 X_7_0 + 1 X_7_1 + 1 X_7_2 + 1 X_7_3 + 1 X_7_4 + 1 X_7_5 + 1 X_7_6 + 1 X_7_8
  + 1 X_7_9
  = 1
 in_7:
  + 1 X_0_7 + 1 X_1_7 + 1 X_2_7 + 1 X_3_7 + 1 X_4_7 + 1 X_5_7 + 1 X_6_7 + 1 X_8_7
  + 1 X_9_7
  = 1
 out_8:
  + 1 X_8_0 + 1 X_8_1 + 1 X_8_2 + 1 X_8_3 + 1 X_8_4 + 1 X_8_5 + 1 X_8_6 + 1 X_8_7
  + 1 X_8_9
  = 1
 in_8:
  + 1 X_0_8 + 1 X_1_8 + 1 X_2_8 + 1 X_3_8 + 1 X_4_8 + 1 X_5_8 + 1 X_6_8 + 1 X_7_8
  + 1 X_9_8
  = 1
 out_9:
  + 1 X_9_0 + 1 X_9_1 + 1 X_9_2 + 1 X_9_3 + 1 X_9_4 + 1 X_9_5 + 1 X_9_6 + 1 X_9_7
  + 1 X_9_8
  = 1
 in_9:
  + 1 X_0_9 + 1 X_1_9 + 1 X_2_9 + 1 X_3_9 + 1 X_4_9 + 1 X_5_9 + 1 X_6_9 + 1 X_7_9
  + 1 X_8_9
  = 1
 mtz_1_2:
  + 1 U1 - 1 U2 + 9 X_1_2
  <= 8
 mtz_1_3:
  + 1 U1 - 1 U3 + 9 X_1_3
  <= 8
 mtz_1_4:
  + 1 U1 - 1 U4 + 9 X_1_4
  <= 8
 mtz_1_5:
  + 1 U1 - 1 U5 + 9 X_1_5
  <= 8
 mtz_1_6:
  + 1 U1 - 1 U6 + 9 X_1_6
  <= 8
 mtz_1_7:
  + 1 U1 - 1 U7 + 9 X_1_7
  <= 8
 mtz_1_8:
  + 1 U1 - 1 U8 + 9 X_1_8
  <= 8
 mtz_1_9:
  + 1 U1 - 1 U9 + 9 X_1_9
  <= 8
 mtz_2_1:
  + 1 U2 - 1 U1 + 9 X_2_1
  <= 8
 mtz_2_3:
  + 1 U2 - 1 U3 + 9 X_2_3
  <= 8
 mtz_2_4:
  + 1 U2 - 1 U4 + 9 X_2_4
  <= 8
 mtz_2_5:
  + 1 U2 - 1 U5 + 9 X_2_5
  <= 8
 mtz_2_6:
  + 1 U2 - 1 U6 + 9 X_2_6
  <= 8
 mtz_2_7:
  + 1 U2 - 1 U7 + 9 X_2_7
  <= 8
 mtz_2_8:
  + 1 U2 - 1 U8 + 9 X_2_8
  <= 8
 mtz_2_9:
  + 1 U2 - 1 U9 + 9 X_2_9
  <= 8
 mtz_3_1:
  + 1 U3 - 1 U1 + 9 X_3_1
  <= 8
 mtz_3_2:
  + 1 U3 - 1 U2 + 9 X_3_2
  <= 8
 mtz_3_4:
  + 1 U3 - 1 U4 + 9 X_3_4
  <= 8
 mtz_3_5:
  + 1 U3 - 1 U5 + 9 X_3_5
  <= 8
 mtz_3_6:
  + 1 U3 - 1 U6 + 9 X_3_6
  <= 8
 mtz_3_7:
  + 1 U3 - 1 U7 + 9 X_3_7
  <= 8
 mtz_3_8:
  + 1 U3 - 1 U8 + 9 X_3_8
  <= 8
 mtz_3_9:
  + 1 U3 - 1 U9 + 9 X_3_9
  <= 8
 mtz_4_1:
  + 1 U4 - 1 U1 + 9 X_4_1
  <= 8
 mtz_4_2:
  + 1 U4 - 1 U2 + 9 X_4_2
  <= 8
 mtz_4_3:
  + 1 U4 - 1 U3 + 9 X_4_3
  <= 8
 mtz_4_5:
  + 1 U4 - 1 U5 + 9 X_4_5
  <= 8
 mtz_4_6:
  + 1 U4 - 1 U6 + 9 X_4_6
  <= 8
 mtz_4_7:
  + 1 U4 - 1 U7 + 9 X_4_7
  <= 8
 mtz_4_8:
  + 1 U4 - 1 U8 + 9 X_4_8
  <= 8
 mtz_4_9:
  + 1 U4 - 1 U9 + 9 X_4_9
  <= 8
 mtz_5_1:
  + 1 U5 - 1 U1 + 9 X_5_1
  <= 8
 mtz_5_2:
  + 1 U5 - 1 U2 + 9 X_5_2
  <= 8
 mtz_5_3:
  + 1 U5 - 1 U3 + 9 X_5_3
  <= 8
 mtz_5_4:
  + 1 U5 - 1 U4 + 9 X_5_4
  <= 8
 mtz_5_6:
  + 1 U5 - 1 U6 + 9 X_5_6
  <= 8
 mtz_5_7:
  + 1 U5 - 1 U7 + 9 X_5_7
  <= 8
 mtz_5_8:
  + 1 U5 - 1 U8 + 9 X_5_8
  <= 8
 mtz_5_9:
  + 1 U5 - 1 U9 + 9 X_5_9
  <= 8
 mtz_6_1:
  + 1 U6 - 1 U1 + 9 X_6_1
  <= 8
 mtz_6_2:
  + 1 U6 - 1 U2 + 9 X_6_2
  <= 8
 mtz_6_3:
  + 1 U6 - 1 U3 + 9 X_6_3
  <= 8
 mtz_6_4:
  + 1 U6 - 1 U4 + 9 X_6_4
  <= 8
 mtz_6_5:
  + 1 U6 - 1 U5 + 9 X_6_5
  <= 8
 mtz_6_7:
  + 1 U6 - 1 U7 + 9 X_6_7
  <= 8
 mtz_6_8:
  + 1 U6 - 1 U8 + 9 X_6_8
  <= 8
 mtz_6_9:
  + 1 U6 - 1 U9 + 9 X_6_9
  <= 8
 mtz_7_1:
  + 1 U7 - 1 U1 + 9 X_7_1
  <= 8
 mtz_7_2:
  + 1 U7 - 1 U2 + 9 X_7_2
  <= 8
 mtz_7_3:
  + 1 U7 - 1 U3 + 9 X_7_3
  <= 8
 mtz_7_4:
  + 1 U7 - 1 U4 + 9 X_7_4
  <= 8
 mtz_7_5:
  + 1 U7 - 1 U5 + 9 X_7_5
  <= 8
 mtz_7_6:
  + 1 U7 - 1 U6 + 9 X_7_6
  <= 8
 mtz_7_8:
  + 1 U7 - 1 U8 + 9 X_7_8
  <= 8
 mtz_7_9:
  + 1 U7 - 1 U9 + 9 X_7_9
  <= 8
 mtz_8_1:
  + 1 U8 - 1 U1 + 9 X_8_1
  <= 8
 mtz_8_2:
  + 1 U8 - 1 U2 + 9 X_8_2
  <= 8
 mtz_8_3:
  + 1 U8 - 1 U3 + 9 X_8_3
  <= 8
 mtz_8_4:
  + 1 U8 - 1 U4 + 9 X_8_4
  <= 8
 mtz_8_5:
  + 1 U8 - 1 U5 + 9 X_8_5
  <= 8
 mtz_8_6:
  + 1 U8 - 1 U6 + 9 X_8_6
  <= 8
 mtz_8_7:
  + 1 U8 - 1 U7 + 9 X_8_7
  <= 8
 mtz_8_9:
  + 1 U8 - 1 U9 + 9 X_8_9
  <= 8
 mtz_9_1:
  + 1 U9 - 1 U1 + 9 X_9_1
  <= 8
 mtz_9_2:
  + 1 U9 - 1 U2 + 9 X_9_2
  <= 8
 mtz_9_3:
  + 1 U9 - 1 U3 + 9 X_9_3
  <= 8
 mtz_9_4:
  + 1 U9 - 1 U4 + 9 X_9_4
  <= 8
 mtz_9_5:
  + 1 U9 - 1 U5 + 9 X_9_5
  <= 8
 mtz_9_6:
  + 1 U9 - 1 U6 + 9 X_9_6
  <= 8
 mtz_9_7:
  + 1 U9 - 1 U7 + 9 X_9_7
  <= 8
 mtz_9_8:
  + 1 U9 - 1 U8 + 9 X_9_8
  <= 8
 obj1:
  + 140 X_0_1 + 133 X_0_2 + 617 X_0_3 + 263 X_0_4 + 592 X_0_5 + 324 X_0_6 + 714 X_0_7 + 775 X_0_8
  + 734 X_0_9 + 140 X_1_0 + 270 X_1_2 + 738 X_1_3 + 341 X_1_4 + 635 X_1_5 + 309 X_1_6 + 661 X_1_7
  + 882 X_1_8 + 789 X_1_9 + 133 X_2_0 + 270 X_2_1 + 489 X_2_3 + 201 X_2_4 + 535 X_2_5 + 348 X_2_6
  + 744 X_2_7 + 655 X_2_8 + 661 X_2_9 + 617 X_3_0 + 738 X_3_1 + 489 X_3_2 + 425 X_3_4 + 457 X_3_5
  + 615 X_3_6 + 887 X_3_7 + 193 X_3_8 + 450 X_3_9 + 263 X_4_0 + 341 X_4_1 + 201 X_4_2 + 425 X_4_3
  + 337 X_4_5 + 211 X_4_6 + 578 X_4_7 + 547 X_4_8 + 472 X_4_9 + 592 X_5_0 + 635 X_5_1 + 535 X_5_2
  + 457 X_5_3 + 337 X_5_4 + 350 X_5_6 + 448 X_5_7 + 448 X_5_8 + 161 X_5_9 + 324 X_6_0 + 309 X_6_1
  + 348 X_6_2 + 615 X_6_3 + 211 X_6_4 + 350 X_6_5 + 397 X_6_7 + 703 X_6_8 + 512 X_6_9 + 714 X_7_0
  + 661 X_7_1 + 744 X_7_2 + 887 X_7_3 + 578 X_7_4 + 448 X_7_5 + 397 X_7_6 + 897 X_7_8 + 560 X_7_9
  + 775 X_8_0 + 882 X_8_1 + 655 X_8_2 + 193 X_8_3 + 547 X_8_4 + 448 X_8_5 + 703 X_8_6 + 897 X_8_7
  + 373 X_8_9 + 734 X_9_0 + 789 X_9_1 + 661 X_9_2 + 450 X_9_3 + 472 X_9_4 + 161 X_9_5 + 512 X_9_6
  + 560 X_9_7 + 373 X_9_8
  <= 1
 obj2:
  + 600 X_0_1 + 678 X_0_2 + 764 X_0_3 + 836 X_0_4 + 1055 X_0_5 + 731 X_0_6 + 767 X_0_7 + 431 X_0_8
  + 766 X_0_9 + 600 X_1_0 + 752 X_1_2 + 169 X_1_3 + 235 X_1_4 + 472 X_1_5 + 620 X_1_6 + 336 X_1_7
  + 457 X_1_8 + 206 X_1_9 + 678 X_2_0 + 752 X_2_1 + 885 X_2_3 + 883 X_2_4 + 955 X_2_5 + 218 X_2_6
  + 581 X_2_7 + 324 X_2_8 + 952 X_2_9 + 764 X_3_0 + 169 X_3_1 + 885 X_3_2 + 99 X_3_4 + 353 X_3_5
  + 726 X_3_6 + 377 X_3_7 + 611 X_3_8 + 91 X_3_9 + 836 X_4_0 + 235 X_4_1 + 883 X_4_2 + 99 X_4_3
  + 254 X_4_5 + 707 X_4_6 + 334 X_4_7 + 635 X_4_8 + 178 X_4_9 + 1055 X_5_0 + 472 X_5_1 + 955 X_5_2
  + 353 X_5_3 + 254 X_5_4 + 749 X_5_6 + 377 X_5_7 + 776 X_5_8 + 422 X_5_9 + 731 X_6_0 + 620 X_6_1
  + 218 X_6_2 + 726 X_6_3 + 707 X_6_4 + 749 X_6_5 + 384 X_6_7 + 303 X_6_8 + 804 X_6_9 + 767 X_7_0
  + 336 X_7_1 + 581 X_7_2 + 377 X_7_3 + 334 X_7_4 + 377 X_7_5 + 384 X_7_6 + 415 X_7_8 + 466 X_7_9
  + 431 X_8_0 + 457 X_8_1 + 324 X_8_2 + 611 X_8_3 + 635 X_8_4 + 776 X_8_5 + 303 X_8_6 + 415 X_8_7
  + 664 X_8_9 + 766 X_9_0 + 206 X_9_1 + 952 X_9_2 + 91 X_9_3 + 178 X_9_4 + 422 X_9_5 + 804 X_9_6
  + 466 X_9_7 + 664 X_9_8
  <= 2
 obj3:
  + 322 X_0_1 + 821 X_0_2 + 265 X_0_3 + 160 X_0_4 + 183 X_0_5 + 303 X_0_6 + 454 X_0_7 + 7 X_0_8
  + 788 X_0_9 + 322 X_1_0 + 578 X_1_2 + 87 X_1_3 + 386 X_1_4 + 485 X_1_5 + 179 X_1_6 + 140 X_1_7
  + 319 X_1_8 + 560 X_1_9 + 821 X_2_0 + 578 X_2_1 + 579 X_2_3 + 774 X_2_4 + 905 X_2_5 + 517 X_2_6
  + 458 X_2_7 + 822 X_2_8 + 49 X_2_9 + 265 X_3_0 + 87 X_3_1 + 579 X_3_2 + 305 X_3_4 + 412 X_3_5
  + 106 X_3_6 + 191 X_3_7 + 263 X_3_8 + 554 X_3_9 + 160 X_4_0 + 386 X_4_1 + 774 X_4_2 + 305 X_4_3
  + 130 X_4_5 + 284 X_4_6 + 491 X_4_7 + 166 X_4_8 + 735 X_4_9 + 183 X_5_0 + 485 X_5_1 + 905 X_5_2
  + 412 X_5_3 + 130 X_5_4 + 409 X_5_6 + 603 X_5_7 + 190 X_5_8 + 866 X_5_9 + 303 X_6_0 + 179 X_6_1
  + 517 X_6_2 + 106 X_6_3 + 284 X_6_4 + 409 X_6_5 + 224 X_6_7 + 304 X_6_8 + 485 X_6_9 + 454 X_7_0
  + 140 X_7_1 + 458 X_7_2 + 191 X_7_3 + 491 X_7_4 + 603 X_7_5 + 224 X_7_6 + 452 X_7_8 + 446 X_7_9
  + 7 X_8_0 + 319 X_8_1 + 822 X_8_2 + 263 X_8_3 + 166 X_8_4 + 190 X_8_5 + 304 X_8_6 + 452 X_8_7
  + 789 X_8_9 + 788 X_9_0 + 560 X_9_1 + 49 X_9_2 + 554 X_9_3 + 735 X_9_4 + 866 X_9_5 + 485 X_9_6
  + 446 X_9_7 + 789 X_9_8
  <= 3
Bounds
 1 <= U1 <= 9
 1 <= U2 <= 9
 1 <= U3 <= 9
 1 <= U4 <= 9
 1 <= U5 <= 9
 1 <= U6 <= 9
 1 <= U7 <= 9
 1 <= U8 <= 9
 1 <= U9 <= 9
Binary
 X_0_1
 X_0_2
 X_0_3
 X_0_4
 X_0_5
 X_0_6
 X_0_7
 X_0_8
 X_0_9
 X_1_0
 X_1_2
 X_1_3
 X_1_4
 X_1_5
 X_1_6
 X_1_7
 X_1_8
 X_1_9
 X_2_0
 X_2_1
 X_2_3
 X_2_4
 X_2_5
 X_2_6
 X_2_7
 X_2_8
 X_2_9
 X_3_0
 X_3_1
 X_3_2
 X_3_4
 X_3_5
 X_3_6
 X_3_7
 X_3_8
 X_3_9
 X_4_0
 X_4_1
 X_4_2
 X_4_3
 X_4_5
 X_4_6
 X_4_7
 X_4_8
 X_4_9
 X_5_0
 X_5_1
 X_5_2
 X_5_3
 X_5_4
 X_5_6
 X_5_7
 X_5_8
 X_5_9
 X_6_0
 X_6_1
 X_6_2
 X_6_3
 X_6_4
 X_6_5
 X_6_7
 X_6_8
 X_6_9
 X_7_0
 X_7_1
 X_7_2
 X_7_3
 X_7_4
 X_7_5
 X_7_6
 X_7_8
 X_7_9
 X_8_0
 X_8_1
 X_8_2
 X_8_3
 X_8_4
 X_8_5
 X_8_6
 X_8_7
 X_8_9
 X_9_0
 X_9_1
 X_9_2
 X_9_3
 X_9_4
 X_9_5
 X_9_6
 X_9_7
 X_9_8
End
